0 0 0 0
0 1 0 0
0 2 0 6
0 3 0 0
0 4 0 15
0 5 0 6
0 6 0 32
0 7 0 48
0 8 0 2
0 9 0 9
0 10 0 9
0 11 0 36
0 12 0 10
0 13 0 16
0 14 0 18
0 15 0 27
0 16 0 15
0 17 0 25
0 18 0 12
0 19 0 14
0 20 0 25
0 21 0 53
0 22 0 36
0 23 0 39
0 24 0 89
0 25 0 16
0 26 0 73
0 27 0 26
0 28 0 16
0 29 0 53
0 30 0 26
0 31 0 27
0 32 0 42
0 33 0 60
0 34 0 42
0 35 0 61
0 36 0 34
0 37 0 82
0 38 0 42
0 39 0 110
0 40 0 40
0 41 0 105
0 42 0 89
0 43 0 120
0 44 0 62
0 45 0 76
0 46 0 105
0 47 0 50
0 48 0 50
0 49 0 84
0 50 0 68
0 51 0 60
0 52 0 69
0 53 0 73
0 54 0 101
0 55 0 113
0 56 0 128
0 57 0 38
0 58 0 99
0 59 0 92
0 60 0 113
0 61 0 40
0 62 0 123
0 63 0 108
0 64 0 138
0 65 0 100
0 66 0 82
0 67 0 92
0 68 0 98
0 69 0 135
0 70 0 116
0 71 0 172
0 72 0 179
0 73 0 192
0 74 0 98
0 75 0 99
0 76 0 118
0 77 0 116
0 78 0 132
0 79 0 111
0 80 0 146
0 81 0 108
0 82 0 78
0 83 0 84
0 84 0 137
0 85 0 128
0 86 0 163
0 87 0 153
0 88 0 138
0 89 0 192
0 90 0 112
0 91 0 163
0 92 0 155
0 93 0 112
0 94 0 118
0 95 0 183
0 96 0 189
0 97 0 145
0 98 0 215
0 99 0 175
0 100 0 155
0 101 0 182
0 102 0 205
0 103 0 192
0 104 0 189
0 105 0 167
0 106 0 202
0 107 0 205
0 108 0 220
0 109 0 146
0 110 0 199
0 111 0 199
0 112 0 215
0 113 0 209
0 114 0 208
0 115 0 209
0 116 0 220
0 117 0 179
0 118 0 214
0 119 0 221
0 120 0 224
0 121 0 226
